\Problem name: ClpDefaultName

Minimize
OBJROW: 42 x(1) + 12 x(2) + 41 x(3) + 3 x(4) + 61 x(5) + 57 x(6) + 45 x(7) + 7 x(8) + 66 x(9) + 2 x(10)
Subject To
c_0:  x(1) + x(2) + x(3) + x(4) + x(5) + x(6) + x(7) + x(8) + x(9) + x(10)
 <= 1
Bounds
End
